
Gurobi 7.5.2 (linux64) logging started Sat Jul  7 16:13:47 2018

Changed value of parameter LogFile to result/ilp/simNo_8-n_100-m_40-s_7-minVAF_0.05-cov_10000-k_1-fn_0.15-fp_0.0001-na_0.15.ILP.gurobiSolverLog
   Prev: gurobi.log  Default: 
Changed value of parameter TimeLimit to 86400.0
   Prev: 1e+100  Min: 0.0  Max: 1e+100  Default: 1e+100
Optimize a model with 639293 rows, 10765 columns and 1940420 nonzeros
Variable types: 0 continuous, 10765 integer (10765 binary)
Coefficient statistics:
  Matrix range     [6e-05, 4e+00]
  Objective range  [2e+00, 2e+01]
  Bounds range     [1e+00, 1e+00]
  RHS range        [1e-01, 2e+00]
Found heuristic solution: objective -12812.37919
Presolve removed 139984 rows and 1117 columns (presolve time = 5s) ...
Presolve removed 207856 rows and 1789 columns (presolve time = 11s) ...
Presolve removed 207856 rows and 1789 columns
Presolve time: 13.96s
Presolved: 431437 rows, 8976 columns, 1296542 nonzeros
Variable types: 0 continuous, 8976 integer (8976 binary)
Presolved: 8976 rows, 440413 columns, 1305518 nonzeros

Presolve removed 8976 rows and 440413 columns

Root simplex log...

Iteration    Objective       Primal Inf.    Dual Inf.      Time
       0    1.5676162e+01   0.000000e+00   6.176700e+04     17s
   25912   -3.0379807e+02   0.000000e+00   1.503860e+04     20s
   36555   -3.1594445e+02   0.000000e+00   0.000000e+00     23s
   36555   -3.1594445e+02   0.000000e+00   0.000000e+00     24s

Root relaxation: objective -3.159445e+02, 36555 iterations, 8.57 seconds
Total elapsed time = 40.19s

    Nodes    |    Current Node    |     Objective Bounds      |     Work
 Expl Unexpl |  Obj  Depth IntInf | Incumbent    BestBd   Gap | It/Node Time

     0     0 -315.94445    0 1968 -12812.379 -315.94445  97.5%     -   44s
H    0     0                    -340.0341249 -315.94445  7.08%     -   49s
H    0     0                    -327.5738091 -315.94445  3.55%     -   50s
     0     0 -317.50199    0 1972 -327.57381 -317.50199  3.07%     -   85s
     0     0 -317.71041    0 1972 -327.57381 -317.71041  3.01%     -   92s
     0     0 -320.49469    0 1988 -327.57381 -320.49469  2.16%     -  192s
     0     0 -320.55477    0 1984 -327.57381 -320.55477  2.14%     -  197s
     0     0 -320.55477    0 1983 -327.57381 -320.55477  2.14%     -  199s
     0     0 -320.56488    0  223 -327.57381 -320.56488  2.14%     -  263s
     0     0 -320.56488    0  370 -327.57381 -320.56488  2.14%     -  301s
     0     0 -320.56488    0  229 -327.57381 -320.56488  2.14%     -  306s
     0     0 -320.56488    0  224 -327.57381 -320.56488  2.14%     -  307s
     0     0 -320.56488    0  227 -327.57381 -320.56488  2.14%     -  307s
     0     0 -321.25712    0  437 -327.57381 -321.25712  1.93%     -  308s
     0     0 -321.34365    0  248 -327.57381 -321.34365  1.90%     -  309s
     0     0 -321.34365    0  242 -327.57381 -321.34365  1.90%     -  310s
     0     0 -321.34365    0  246 -327.57381 -321.34365  1.90%     -  311s
H    0     0                    -324.4587302 -321.34365  0.96%     -  311s
     0     0 -321.34365    0  247 -324.45873 -321.34365  0.96%     -  311s
     0     0 -321.34365    0  230 -324.45873 -321.34365  0.96%     -  313s
     0     0 -321.34365    0  267 -324.45873 -321.34365  0.96%     -  317s
     0     0 -321.34365    0  242 -324.45873 -321.34365  0.96%     -  317s
     0     0 -321.34365    0  240 -324.45873 -321.34365  0.96%     -  318s
     0     0 -321.34365    0  240 -324.45873 -321.34365  0.96%     -  318s
     0     0 -321.96667    0  238 -324.45873 -321.96667  0.77%     -  318s
     0     0 -321.96667    0  240 -324.45873 -321.96667  0.77%     -  318s
     0     0 -322.12242    0  250 -324.45873 -322.12242  0.72%     -  318s
     0     0 -322.12242    0  250 -324.45873 -322.12242  0.72%     -  318s
     0     0 -322.12242    0  248 -324.45873 -322.12242  0.72%     -  319s
     0     0 -322.12242    0  251 -324.45873 -322.12242  0.72%     -  319s
     0     0 -322.12242    0  267 -324.45873 -322.12242  0.72%     -  319s
     0     0 -322.53529    0  316 -324.45873 -322.53529  0.59%     -  320s
     0     0 -322.82593    0  317 -324.45873 -322.82593  0.50%     -  320s
     0     0 -322.90119    0  236 -324.45873 -322.90119  0.48%     -  320s
     0     0 -322.90119    0  241 -324.45873 -322.90119  0.48%     -  320s
     0     0 -322.90119    0  203 -324.45873 -322.90119  0.48%     -  322s
     0     0 -322.90119    0  232 -324.45873 -322.90119  0.48%     -  322s
     0     0 -322.90119    0  245 -324.45873 -322.90119  0.48%     -  322s
     0     0 -322.90119    0  242 -324.45873 -322.90119  0.48%     -  322s
     0     0 -322.90119    0  237 -324.45873 -322.90119  0.48%     -  322s
     0     0 -322.90119    0  203 -324.45873 -322.90119  0.48%     -  323s
     0     0 -322.90119    0  231 -324.45873 -322.90119  0.48%     -  323s
     0     0 -322.90119    0  220 -324.45873 -322.90119  0.48%     -  323s
     0     0 -322.90119    0  241 -324.45873 -322.90119  0.48%     -  323s
     0     0 -322.90119    0  199 -324.45873 -322.90119  0.48%     -  323s
     0     0 -322.90119    0  198 -324.45873 -322.90119  0.48%     -  323s
     0     0 -322.90119    0  206 -324.45873 -322.90119  0.48%     -  323s
     0     0 -322.90119    0  204 -324.45873 -322.90119  0.48%     -  323s
     0     0 -322.90119    0  249 -324.45873 -322.90119  0.48%     -  323s
     0     0 -322.90119    0  246 -324.45873 -322.90119  0.48%     -  323s
     0     0 -323.01874    0  259 -324.45873 -323.01874  0.44%     -  323s
     0     0 -323.06232    0  261 -324.45873 -323.06232  0.43%     -  323s
     0     0 -323.07425    0  262 -324.45873 -323.07425  0.43%     -  323s
     0     0 -323.07425    0  262 -324.45873 -323.07425  0.43%     -  323s
     0     0 -323.07425    0  261 -324.45873 -323.07425  0.43%     -  323s

Explored 1 nodes (87961 simplex iterations) in 324.02 seconds
Thread count was 1 (of 80 available processors)

Solution count 9: -324.459 -324.459 -324.459 ... -12812.4

Optimal solution found (tolerance 1.00e-04)
Best objective -3.244587301697e+02, best bound -3.244587301697e+02, gap 0.0000%
